; vmt-chc-benchmarks/./cav12/s3_clnt_1.cil_000.smt2
(set-logic HORN)

(declare-fun |state| ( Bool Bool Bool Real Real Real Real Real Real Real Real Real Real Real Real Real Real Real Real Real Real Real Real Real Real Real Real Real Real Real Real Real Real Real Real Real Real Real ) Bool)

(assert
  (forall ( (A Real) (B Real) (C Real) (D Real) (E Real) (F Real) (G Real) (H Real) (I Real) (J Real) (K Real) (L Real) (M Real) (N Real) (O Real) (P Real) (Q Real) (R Real) (S Real) (T Real) (U Real) (V Real) (W Real) (X Real) (Y Real) (Z Real) (A1 Real) (B1 Real) (C1 Real) (D1 Real) (E1 Real) (F1 Real) (G1 Real) (H1 Real) (I1 Real) (J1 Bool) (K1 Bool) (L1 Bool) ) 
    (=>
      (and
        (and (not J1) (not L1) (not K1))
      )
      (state L1
       K1
       J1
       B
       G
       W
       E1
       F1
       X
       Z
       A
       I1
       C
       D
       E
       F
       H
       I
       J
       K
       L
       M
       N
       O
       P
       Q
       R
       S
       T
       U
       V
       Y
       A1
       B1
       C1
       D1
       G1
       H1)
    )
  )
)
(assert
  (forall ( (A Real) (B Real) (C Real) (D Real) (E Real) (F Real) (G Real) (H Real) (I Real) (J Real) (K Real) (L Real) (M Real) (N Real) (O Real) (P Real) (Q Real) (R Real) (S Real) (T Real) (U Real) (V Real) (W Real) (X Real) (Y Real) (Z Real) (A1 Real) (B1 Real) (C1 Real) (D1 Real) (E1 Real) (F1 Real) (G1 Real) (H1 Real) (I1 Real) (J1 Real) (K1 Real) (L1 Real) (M1 Real) (N1 Real) (O1 Real) (P1 Real) (Q1 Real) (R1 Real) (S1 Real) (T1 Real) (U1 Real) (V1 Real) (W1 Real) (X1 Real) (Y1 Real) (Z1 Real) (A2 Real) (B2 Real) (C2 Real) (D2 Real) (E2 Real) (F2 Real) (G2 Real) (H2 Real) (I2 Real) (J2 Real) (K2 Real) (L2 Real) (M2 Real) (N2 Real) (O2 Real) (P2 Real) (Q2 Real) (R2 Real) (S2 Real) (T2 Real) (U2 Real) (V2 Real) (W2 Real) (X2 Real) (Y2 Real) (Z2 Real) (A3 Real) (B3 Real) (C3 Real) (D3 Real) (E3 Real) (F3 Real) (G3 Real) (H3 Real) (I3 Real) (J3 Real) (K3 Real) (L3 Real) (M3 Real) (N3 Real) (O3 Real) (P3 Real) (Q3 Real) (R3 Real) (S3 Real) (T3 Real) (U3 Real) (V3 Real) (W3 Real) (X3 Real) (Y3 Real) (Z3 Real) (A4 Real) (B4 Real) (C4 Real) (D4 Real) (E4 Real) (F4 Real) (G4 Real) (H4 Real) (I4 Real) (J4 Real) (K4 Real) (L4 Real) (M4 Real) (N4 Bool) (O4 Bool) (P4 Bool) (Q4 Bool) (R4 Bool) (S4 Bool) ) 
    (=>
      (and
        (state R4
       Q4
       P4
       E
       O
       U1
       K2
       M2
       V1
       Z1
       B
       M4
       F
       H
       J
       L
       Q
       R
       T
       V
       X
       Z
       B1
       D1
       F1
       H1
       J1
       L1
       N1
       P1
       R1
       X1
       B2
       D2
       F2
       H2
       N2
       P2)
        (let ((a!1 (or (and (= F4 0.0)
                    (= Q2 C4)
                    (= O2 H4)
                    (= I2 Z3)
                    (= G2 R3)
                    (= E2 S3)
                    (= C2 P3)
                    (= A2 0.0)
                    (= Y1 B4)
                    (= W1 12292.0)
                    (= S1 U3)
                    (= Q1 A4)
                    (= O1 W3)
                    (= M1 E4)
                    (= K1 G4)
                    (= G1 L4)
                    (= E1 N3)
                    (= C1 X3)
                    (= A1 T3)
                    (= Y D4)
                    (= W L3)
                    (= W I1)
                    (not (= W 0.0))
                    (= U M3)
                    (= S Q3)
                    (= P O3)
                    (= M V3)
                    (= K I4)
                    (= I K4)
                    (= G Y3)
                    (= C J4)
                    (= A 0.0))
               (and (= F4 I1)
                    (= F4 0.0)
                    (= Q2 C4)
                    (= O2 H4)
                    (= I2 Z3)
                    (= G2 R3)
                    (= E2 S3)
                    (= C2 P3)
                    (= A2 0.0)
                    (= Y1 B4)
                    (= W1 12292.0)
                    (= S1 U3)
                    (= Q1 A4)
                    (= O1 W3)
                    (= M1 E4)
                    (= K1 G4)
                    (= G1 L4)
                    (= E1 N3)
                    (= C1 X3)
                    (= A1 T3)
                    (= Y D4)
                    (= W L3)
                    (= W 0.0)
                    (= U M3)
                    (= S Q3)
                    (= P O3)
                    (= M V3)
                    (= K I4)
                    (= I K4)
                    (= I 0.0)
                    (= G Y3)
                    (= C J4)
                    (= A 0.0))
               (and (= F4 0.0)
                    (= Q2 C4)
                    (= O2 H4)
                    (= I2 Z3)
                    (= G2 R3)
                    (= E2 S3)
                    (= C2 P3)
                    (= A2 0.0)
                    (= Y1 B4)
                    (= W1 12292.0)
                    (= S1 U3)
                    (= Q1 A4)
                    (= O1 W3)
                    (= M1 E4)
                    (= K1 G4)
                    (= G1 L4)
                    (= E1 N3)
                    (= C1 X3)
                    (= A1 T3)
                    (= Y D4)
                    (= W L3)
                    (= W 0.0)
                    (= U M3)
                    (= S Q3)
                    (= P O3)
                    (= M V3)
                    (= K I4)
                    (= I K4)
                    (= I I1)
                    (not (= I 0.0))
                    (= G Y3)
                    (= C J4)
                    (= A 0.0))))
      (a!2 (or (and (not (= V1 12292.0))
                    (= V1 4400.0)
                    (not (= V1 4385.0))
                    (not (= V1 4384.0))
                    (not (= V1 4369.0))
                    (not (= V1 4368.0))
                    (not (= V1 4099.0))
                    (not (= V1 20480.0))
                    (not (= V1 4096.0))
                    (not (= V1 16384.0))
                    (= N V1))
               (and (not (= V1 12292.0))
                    (= V1 4401.0)
                    (not (= V1 4400.0))
                    (not (= V1 4385.0))
                    (not (= V1 4384.0))
                    (not (= V1 4369.0))
                    (not (= V1 4368.0))
                    (not (= V1 4099.0))
                    (not (= V1 20480.0))
                    (not (= V1 4096.0))
                    (not (= V1 16384.0))
                    (= N V1))))
      (a!5 (or (and (not (= V1 12292.0))
                    (not (= V1 4432.0))
                    (not (= V1 4417.0))
                    (not (= V1 4416.0))
                    (not (= V1 4401.0))
                    (not (= V1 4400.0))
                    (not (= V1 4385.0))
                    (not (= V1 4384.0))
                    (not (= V1 4369.0))
                    (not (= V1 4368.0))
                    (not (= V1 4099.0))
                    (not (= V1 20480.0))
                    (not (= V1 4096.0))
                    (not (= V1 16384.0))
                    (not (= V1 4433.0))
                    (= V1 4448.0)
                    (= N V1))
               (and (not (= V1 12292.0))
                    (not (= V1 4432.0))
                    (not (= V1 4417.0))
                    (not (= V1 4416.0))
                    (not (= V1 4401.0))
                    (not (= V1 4400.0))
                    (not (= V1 4385.0))
                    (not (= V1 4384.0))
                    (not (= V1 4369.0))
                    (not (= V1 4368.0))
                    (not (= V1 4099.0))
                    (not (= V1 20480.0))
                    (not (= V1 4096.0))
                    (not (= V1 16384.0))
                    (not (= V1 4433.0))
                    (= V1 4449.0)
                    (not (= V1 4448.0))
                    (= N V1))))
      (a!8 (or (and (not (= V1 12292.0))
                    (= V1 4368.0)
                    (not (= V1 4099.0))
                    (not (= V1 20480.0))
                    (not (= V1 4096.0))
                    (not (= V1 16384.0))
                    (= N V1))
               (and (not (= V1 12292.0))
                    (= V1 4369.0)
                    (not (= V1 4368.0))
                    (not (= V1 4099.0))
                    (not (= V1 20480.0))
                    (not (= V1 4096.0))
                    (not (= V1 16384.0))
                    (= N V1))))
      (a!10 (or (and (not (= V1 12292.0))
                     (= V1 4384.0)
                     (not (= V1 4369.0))
                     (not (= V1 4368.0))
                     (not (= V1 4099.0))
                     (not (= V1 20480.0))
                     (not (= V1 4096.0))
                     (not (= V1 16384.0))
                     (= N V1))
                (and (not (= V1 12292.0))
                     (= V1 4385.0)
                     (not (= V1 4384.0))
                     (not (= V1 4369.0))
                     (not (= V1 4368.0))
                     (not (= V1 4099.0))
                     (not (= V1 20480.0))
                     (not (= V1 4096.0))
                     (not (= V1 16384.0))
                     (= N V1))))
      (a!13 (or (and (not (= V1 12292.0))
                     (= V1 4416.0)
                     (not (= V1 4401.0))
                     (not (= V1 4400.0))
                     (not (= V1 4385.0))
                     (not (= V1 4384.0))
                     (not (= V1 4369.0))
                     (not (= V1 4368.0))
                     (not (= V1 4099.0))
                     (not (= V1 20480.0))
                     (not (= V1 4096.0))
                     (not (= V1 16384.0))
                     (= N V1))
                (and (not (= V1 12292.0))
                     (= V1 4417.0)
                     (not (= V1 4416.0))
                     (not (= V1 4401.0))
                     (not (= V1 4400.0))
                     (not (= V1 4385.0))
                     (not (= V1 4384.0))
                     (not (= V1 4369.0))
                     (not (= V1 4368.0))
                     (not (= V1 4099.0))
                     (not (= V1 20480.0))
                     (not (= V1 4096.0))
                     (not (= V1 16384.0))
                     (= N V1))))
      (a!15 (or (and (not (= V1 12292.0))
                     (not (= V1 4432.0))
                     (not (= V1 4417.0))
                     (not (= V1 4416.0))
                     (not (= V1 4401.0))
                     (not (= V1 4400.0))
                     (not (= V1 4385.0))
                     (not (= V1 4384.0))
                     (not (= V1 4369.0))
                     (not (= V1 4368.0))
                     (not (= V1 4099.0))
                     (not (= V1 20480.0))
                     (not (= V1 4096.0))
                     (not (= V1 16384.0))
                     (not (= V1 4433.0))
                     (= V1 4464.0)
                     (not (= V1 4449.0))
                     (not (= V1 4448.0))
                     (= N V1))
                (and (not (= V1 12292.0))
                     (not (= V1 4432.0))
                     (not (= V1 4417.0))
                     (not (= V1 4416.0))
                     (not (= V1 4401.0))
                     (not (= V1 4400.0))
                     (not (= V1 4385.0))
                     (not (= V1 4384.0))
                     (not (= V1 4369.0))
                     (not (= V1 4368.0))
                     (not (= V1 4099.0))
                     (not (= V1 20480.0))
                     (not (= V1 4096.0))
                     (not (= V1 16384.0))
                     (not (= V1 4433.0))
                     (= V1 4465.0)
                     (not (= V1 4464.0))
                     (not (= V1 4449.0))
                     (not (= V1 4448.0))
                     (= N V1))
                (and (not (= V1 12292.0))
                     (not (= V1 4432.0))
                     (not (= V1 4417.0))
                     (not (= V1 4416.0))
                     (not (= V1 4401.0))
                     (not (= V1 4400.0))
                     (not (= V1 4385.0))
                     (not (= V1 4384.0))
                     (not (= V1 4369.0))
                     (not (= V1 4368.0))
                     (not (= V1 4099.0))
                     (not (= V1 20480.0))
                     (not (= V1 4096.0))
                     (not (= V1 16384.0))
                     (not (= V1 4433.0))
                     (= V1 4466.0)
                     (not (= V1 4465.0))
                     (not (= V1 4464.0))
                     (not (= V1 4449.0))
                     (not (= V1 4448.0))
                     (= N V1))
                (and (not (= V1 12292.0))
                     (not (= V1 4432.0))
                     (not (= V1 4417.0))
                     (not (= V1 4416.0))
                     (not (= V1 4401.0))
                     (not (= V1 4400.0))
                     (not (= V1 4385.0))
                     (not (= V1 4384.0))
                     (not (= V1 4369.0))
                     (not (= V1 4368.0))
                     (not (= V1 4099.0))
                     (not (= V1 20480.0))
                     (not (= V1 4096.0))
                     (not (= V1 16384.0))
                     (not (= V1 4433.0))
                     (= V1 4467.0)
                     (not (= V1 4466.0))
                     (not (= V1 4465.0))
                     (not (= V1 4464.0))
                     (not (= V1 4449.0))
                     (not (= V1 4448.0))
                     (= N V1))))
      (a!16 (or (and (not (= V1 12292.0))
                     (= V1 4432.0)
                     (not (= V1 4417.0))
                     (not (= V1 4416.0))
                     (not (= V1 4401.0))
                     (not (= V1 4400.0))
                     (not (= V1 4385.0))
                     (not (= V1 4384.0))
                     (not (= V1 4369.0))
                     (not (= V1 4368.0))
                     (not (= V1 4099.0))
                     (not (= V1 20480.0))
                     (not (= V1 4096.0))
                     (not (= V1 16384.0))
                     (= N V1))
                (and (not (= V1 12292.0))
                     (not (= V1 4432.0))
                     (not (= V1 4417.0))
                     (not (= V1 4416.0))
                     (not (= V1 4401.0))
                     (not (= V1 4400.0))
                     (not (= V1 4385.0))
                     (not (= V1 4384.0))
                     (not (= V1 4369.0))
                     (not (= V1 4368.0))
                     (not (= V1 4099.0))
                     (not (= V1 20480.0))
                     (not (= V1 4096.0))
                     (not (= V1 16384.0))
                     (= V1 4433.0)
                     (= N V1))))
      (a!18 (or (and (not (= V1 12292.0))
                     (not (= V1 4432.0))
                     (not (= V1 4417.0))
                     (not (= V1 4416.0))
                     (not (= V1 4401.0))
                     (not (= V1 4400.0))
                     (not (= V1 4385.0))
                     (not (= V1 4384.0))
                     (not (= V1 4369.0))
                     (not (= V1 4368.0))
                     (not (= V1 4099.0))
                     (not (= V1 20480.0))
                     (not (= V1 4096.0))
                     (not (= V1 16384.0))
                     (not (= V1 4433.0))
                     (= V1 4480.0)
                     (not (= V1 4467.0))
                     (not (= V1 4466.0))
                     (not (= V1 4465.0))
                     (not (= V1 4464.0))
                     (not (= V1 4449.0))
                     (not (= V1 4448.0))
                     (= N V1))
                (and (not (= V1 12292.0))
                     (not (= V1 4432.0))
                     (not (= V1 4417.0))
                     (not (= V1 4416.0))
                     (not (= V1 4401.0))
                     (not (= V1 4400.0))
                     (not (= V1 4385.0))
                     (not (= V1 4384.0))
                     (not (= V1 4369.0))
                     (not (= V1 4368.0))
                     (not (= V1 4099.0))
                     (not (= V1 20480.0))
                     (not (= V1 4096.0))
                     (not (= V1 16384.0))
                     (not (= V1 4433.0))
                     (= V1 4481.0)
                     (not (= V1 4480.0))
                     (not (= V1 4467.0))
                     (not (= V1 4466.0))
                     (not (= V1 4465.0))
                     (not (= V1 4464.0))
                     (not (= V1 4449.0))
                     (not (= V1 4448.0))
                     (= N V1))))
      (a!20 (or (and (not (= V1 12292.0))
                     (not (= V1 4432.0))
                     (not (= V1 4417.0))
                     (not (= V1 4416.0))
                     (not (= V1 4401.0))
                     (not (= V1 4400.0))
                     (not (= V1 4385.0))
                     (not (= V1 4384.0))
                     (not (= V1 4369.0))
                     (not (= V1 4368.0))
                     (not (= V1 4099.0))
                     (not (= V1 20480.0))
                     (not (= V1 4096.0))
                     (not (= V1 16384.0))
                     (not (= V1 4433.0))
                     (not (= V1 4528.0))
                     (not (= V1 4512.0))
                     (not (= V1 4497.0))
                     (not (= V1 4496.0))
                     (not (= V1 4481.0))
                     (not (= V1 4480.0))
                     (not (= V1 4467.0))
                     (not (= V1 4466.0))
                     (not (= V1 4465.0))
                     (not (= V1 4464.0))
                     (not (= V1 4449.0))
                     (not (= V1 4448.0))
                     (not (= V1 4513.0))
                     (= V1 4560.0)
                     (not (= V1 4529.0))
                     (= N V1))
                (and (not (= V1 12292.0))
                     (not (= V1 4432.0))
                     (not (= V1 4417.0))
                     (not (= V1 4416.0))
                     (not (= V1 4401.0))
                     (not (= V1 4400.0))
                     (not (= V1 4385.0))
                     (not (= V1 4384.0))
                     (not (= V1 4369.0))
                     (not (= V1 4368.0))
                     (not (= V1 4099.0))
                     (not (= V1 20480.0))
                     (not (= V1 4096.0))
                     (not (= V1 16384.0))
                     (not (= V1 4433.0))
                     (not (= V1 4528.0))
                     (not (= V1 4512.0))
                     (not (= V1 4497.0))
                     (not (= V1 4496.0))
                     (not (= V1 4481.0))
                     (not (= V1 4480.0))
                     (not (= V1 4467.0))
                     (not (= V1 4466.0))
                     (not (= V1 4465.0))
                     (not (= V1 4464.0))
                     (not (= V1 4449.0))
                     (not (= V1 4448.0))
                     (not (= V1 4513.0))
                     (not (= V1 4560.0))
                     (not (= V1 4529.0))
                     (= V1 4561.0)
                     (= N V1))))
      (a!22 (and (= V1 12292.0) (= N V1) (= (+ G1 (* (- 1.0) F1)) 1.0)))
      (a!26 (or (and (not (= V1 12292.0))
                     (not (= V1 4432.0))
                     (not (= V1 4417.0))
                     (not (= V1 4416.0))
                     (not (= V1 4401.0))
                     (not (= V1 4400.0))
                     (not (= V1 4385.0))
                     (not (= V1 4384.0))
                     (not (= V1 4369.0))
                     (not (= V1 4368.0))
                     (not (= V1 4099.0))
                     (not (= V1 20480.0))
                     (not (= V1 4096.0))
                     (not (= V1 16384.0))
                     (not (= V1 4433.0))
                     (= V1 4496.0)
                     (not (= V1 4481.0))
                     (not (= V1 4480.0))
                     (not (= V1 4467.0))
                     (not (= V1 4466.0))
                     (not (= V1 4465.0))
                     (not (= V1 4464.0))
                     (not (= V1 4449.0))
                     (not (= V1 4448.0))
                     (= N V1))
                (and (not (= V1 12292.0))
                     (not (= V1 4432.0))
                     (not (= V1 4417.0))
                     (not (= V1 4416.0))
                     (not (= V1 4401.0))
                     (not (= V1 4400.0))
                     (not (= V1 4385.0))
                     (not (= V1 4384.0))
                     (not (= V1 4369.0))
                     (not (= V1 4368.0))
                     (not (= V1 4099.0))
                     (not (= V1 20480.0))
                     (not (= V1 4096.0))
                     (not (= V1 16384.0))
                     (not (= V1 4433.0))
                     (= V1 4497.0)
                     (not (= V1 4496.0))
                     (not (= V1 4481.0))
                     (not (= V1 4480.0))
                     (not (= V1 4467.0))
                     (not (= V1 4466.0))
                     (not (= V1 4465.0))
                     (not (= V1 4464.0))
                     (not (= V1 4449.0))
                     (not (= V1 4448.0))
                     (= N V1))))
      (a!27 (or (and (not (= V1 12292.0))
                     (not (= V1 4432.0))
                     (not (= V1 4417.0))
                     (not (= V1 4416.0))
                     (not (= V1 4401.0))
                     (not (= V1 4400.0))
                     (not (= V1 4385.0))
                     (not (= V1 4384.0))
                     (not (= V1 4369.0))
                     (not (= V1 4368.0))
                     (not (= V1 4099.0))
                     (not (= V1 20480.0))
                     (not (= V1 4096.0))
                     (not (= V1 16384.0))
                     (not (= V1 4433.0))
                     (= V1 4512.0)
                     (not (= V1 4497.0))
                     (not (= V1 4496.0))
                     (not (= V1 4481.0))
                     (not (= V1 4480.0))
                     (not (= V1 4467.0))
                     (not (= V1 4466.0))
                     (not (= V1 4465.0))
                     (not (= V1 4464.0))
                     (not (= V1 4449.0))
                     (not (= V1 4448.0))
                     (= N V1))
                (and (not (= V1 12292.0))
                     (not (= V1 4432.0))
                     (not (= V1 4417.0))
                     (not (= V1 4416.0))
                     (not (= V1 4401.0))
                     (not (= V1 4400.0))
                     (not (= V1 4385.0))
                     (not (= V1 4384.0))
                     (not (= V1 4369.0))
                     (not (= V1 4368.0))
                     (not (= V1 4099.0))
                     (not (= V1 20480.0))
                     (not (= V1 4096.0))
                     (not (= V1 16384.0))
                     (not (= V1 4433.0))
                     (not (= V1 4512.0))
                     (not (= V1 4497.0))
                     (not (= V1 4496.0))
                     (not (= V1 4481.0))
                     (not (= V1 4480.0))
                     (not (= V1 4467.0))
                     (not (= V1 4466.0))
                     (not (= V1 4465.0))
                     (not (= V1 4464.0))
                     (not (= V1 4449.0))
                     (not (= V1 4448.0))
                     (= V1 4513.0)
                     (= N V1))))
      (a!29 (or (and (<= L 0.0)
                     (not (= V1 12292.0))
                     (not (= V1 4432.0))
                     (not (= V1 4417.0))
                     (not (= V1 4416.0))
                     (not (= V1 4401.0))
                     (not (= V1 4400.0))
                     (not (= V1 4385.0))
                     (not (= V1 4384.0))
                     (not (= V1 4369.0))
                     (not (= V1 4368.0))
                     (not (= V1 4099.0))
                     (not (= V1 20480.0))
                     (not (= V1 4096.0))
                     (not (= V1 16384.0))
                     (not (= V1 4433.0))
                     (not (= V1 4528.0))
                     (not (= V1 4512.0))
                     (not (= V1 4497.0))
                     (not (= V1 4496.0))
                     (not (= V1 4481.0))
                     (not (= V1 4480.0))
                     (not (= V1 4467.0))
                     (not (= V1 4466.0))
                     (not (= V1 4465.0))
                     (not (= V1 4464.0))
                     (not (= V1 4449.0))
                     (not (= V1 4448.0))
                     (not (= V1 4513.0))
                     (not (= V1 4560.0))
                     (not (= V1 4529.0))
                     (not (= V1 4561.0))
                     (= V1 4352.0)
                     (= N V1)
                     (= M L))
                (and (not (<= L 0.0))
                     (not (<= M 0.0))
                     (not (= V1 12292.0))
                     (not (= V1 4432.0))
                     (not (= V1 4417.0))
                     (not (= V1 4416.0))
                     (not (= V1 4401.0))
                     (not (= V1 4400.0))
                     (not (= V1 4385.0))
                     (not (= V1 4384.0))
                     (not (= V1 4369.0))
                     (not (= V1 4368.0))
                     (not (= V1 4099.0))
                     (not (= V1 20480.0))
                     (not (= V1 4096.0))
                     (not (= V1 16384.0))
                     (not (= V1 4433.0))
                     (not (= V1 4528.0))
                     (not (= V1 4512.0))
                     (not (= V1 4497.0))
                     (not (= V1 4496.0))
                     (not (= V1 4481.0))
                     (not (= V1 4480.0))
                     (not (= V1 4467.0))
                     (not (= V1 4466.0))
                     (not (= V1 4465.0))
                     (not (= V1 4464.0))
                     (not (= V1 4449.0))
                     (not (= V1 4448.0))
                     (not (= V1 4513.0))
                     (not (= V1 4560.0))
                     (not (= V1 4529.0))
                     (not (= V1 4561.0))
                     (= V1 4352.0)
                     (= N V1)
                     (= M L1))))
      (a!31 (or (and (not (= V1 12292.0))
                     (not (= V1 4432.0))
                     (not (= V1 4417.0))
                     (not (= V1 4416.0))
                     (not (= V1 4401.0))
                     (not (= V1 4400.0))
                     (not (= V1 4385.0))
                     (not (= V1 4384.0))
                     (not (= V1 4369.0))
                     (not (= V1 4368.0))
                     (not (= V1 4099.0))
                     (not (= V1 20480.0))
                     (not (= V1 4096.0))
                     (not (= V1 16384.0))
                     (not (= V1 4433.0))
                     (= V1 4528.0)
                     (not (= V1 4512.0))
                     (not (= V1 4497.0))
                     (not (= V1 4496.0))
                     (not (= V1 4481.0))
                     (not (= V1 4480.0))
                     (not (= V1 4467.0))
                     (not (= V1 4466.0))
                     (not (= V1 4465.0))
                     (not (= V1 4464.0))
                     (not (= V1 4449.0))
                     (not (= V1 4448.0))
                     (not (= V1 4513.0))
                     (= N V1))
                (and (not (= V1 12292.0))
                     (not (= V1 4432.0))
                     (not (= V1 4417.0))
                     (not (= V1 4416.0))
                     (not (= V1 4401.0))
                     (not (= V1 4400.0))
                     (not (= V1 4385.0))
                     (not (= V1 4384.0))
                     (not (= V1 4369.0))
                     (not (= V1 4368.0))
                     (not (= V1 4099.0))
                     (not (= V1 20480.0))
                     (not (= V1 4096.0))
                     (not (= V1 16384.0))
                     (not (= V1 4433.0))
                     (not (= V1 4528.0))
                     (not (= V1 4512.0))
                     (not (= V1 4497.0))
                     (not (= V1 4496.0))
                     (not (= V1 4481.0))
                     (not (= V1 4480.0))
                     (not (= V1 4467.0))
                     (not (= V1 4466.0))
                     (not (= V1 4465.0))
                     (not (= V1 4464.0))
                     (not (= V1 4449.0))
                     (not (= V1 4448.0))
                     (not (= V1 4513.0))
                     (= V1 4529.0)
                     (= N V1)))))
(let ((a!3 (or (and a!2 (= Z 256.0) (not (= Z1 2.0)) (= V2 Z2) (= A2 Z1))
               (and a!2 (= Z 256.0) (= Z1 2.0) (= V2 Z2) (= A2 3.0))))
      (a!6 (or (and a!5 (not (= Z1 4.0)) (= V2 F3) (= A2 Z1))
               (and a!5 (= Z1 4.0) (= V2 F3) (= A2 5.0))))
      (a!9 (or (and a!8 (not (= Z1 0.0)) (= V2 A3) (= A2 Z1))
               (and a!8 (= Z1 0.0) (= V2 A3) (= A2 1.0))))
      (a!11 (or (and a!10 (not (= Z1 1.0)) (= V2 B3) (= A2 Z1))
                (and a!10 (= Z1 1.0) (= V2 B3) (= A2 2.0))))
      (a!14 (or (and a!13 (not (= Z1 3.0)) (= V2 D3) (= A2 Z1))
                (and a!13 (= Z1 3.0) (= V2 D3) (= A2 4.0))))
      (a!19 (or (and a!18
                     (not (<= V2 0.0))
                     (not (= J1 1.0))
                     (= W2 4512.0)
                     (= V2 H3))
                (and a!18 (not (<= V2 0.0)) (= J1 1.0) (= W2 4496.0) (= V2 H3))))
      (a!21 (or (and a!20
                     (not (<= V2 0.0))
                     (not (= B2 0.0))
                     (= W2 4512.0)
                     (= V2 I3))
                (and a!20 (not (<= V2 0.0)) (= B2 0.0) (= W2 3.0) (= V2 I3))))
      (a!23 (or a!22
                (and (not (= V1 12292.0)) (= V1 16384.0) (= G1 F1) (= N V1))
                (and (not (= V1 12292.0))
                     (= V1 4096.0)
                     (not (= V1 16384.0))
                     (= G1 F1)
                     (= N V1))
                (and (not (= V1 12292.0))
                     (= V1 20480.0)
                     (not (= V1 4096.0))
                     (not (= V1 16384.0))
                     (= G1 F1)
                     (= N V1))
                (and (not (= V1 12292.0))
                     (= V1 4099.0)
                     (not (= V1 20480.0))
                     (not (= V1 4096.0))
                     (not (= V1 16384.0))
                     (= G1 F1)
                     (= N V1))))
      (a!32 (and a!31
                 (not (<= V2 0.0))
                 (= B2 0.0)
                 (= W2 R2)
                 (= W2 4352.0)
                 (= V2 U2)
                 (= S1 4560.0)
                 (= C T2)
                 (= (+ B (* (- 1.0) T2)) (- 5.0))))
      (a!33 (and a!31
                 (not (<= V2 0.0))
                 (not (= B2 0.0))
                 (= W2 R2)
                 (= W2 4352.0)
                 (= V2 U2)
                 (= T2 2.0)
                 (= S1 3.0)
                 (= C T2)
                 (= (+ B (* (- 1.0) T2)) (- 5.0))))
      (a!34 (and a!31
                 (not (<= V2 0.0))
                 (not (= B2 0.0))
                 (= W2 4352.0)
                 (= V2 U2)
                 (not (= T2 2.0))
                 (= R2 3.0)
                 (= S1 3.0)
                 (= (+ B (* (- 1.0) T2)) (- 5.0))
                 (= (+ C (* (- 1.0) T2)) 4.0))))
(let ((a!4 (or (and a!3 (not (<= V2 0.0)) (= M4 X2))
               (and a!2 (not (= Z 256.0)) (= M2 V2) (= X2 1.0) (= A2 Z1))))
      (a!7 (or (and a!6 (not (<= V2 0.0)) (= J1 0.0) (= W2 4480.0))
               (and a!6 (not (<= V2 0.0)) (not (= J1 0.0)) (= W2 4464.0))))
      (a!12 (or (and a!9 (not (<= V2 0.0)) (= W2 4384.0))
                (and a!11 (not (<= V2 0.0)) (= B2 0.0) (= W2 4400.0))
                (and a!11 (not (<= V2 0.0)) (not (= B2 0.0)) (= W2 4560.0))))
      (a!24 (or (and a!23 (= E D) (not (= R 0.0)) (= T 66048.0) (= S R))
                (and a!23
                     (not (= F 0.0))
                     (= R 0.0)
                     (= T 66048.0)
                     (= S D)
                     (= D Y2)
                     (not (= D 0.0))))))
(let ((a!17 (or (and a!4 (= W2 4416.0))
                (and a!7 (= M4 X2))
                (and a!12 (= M4 X2))
                (and a!14
                     (not (<= V2 0.0))
                     (not (= X1 0.0))
                     (= W2 4432.0)
                     (= M4 X2))
                (and a!15
                     (not (<= V2 0.0))
                     (= W2 4480.0)
                     (= V2 E3)
                     (= A2 Z1)
                     (= M4 X2))
                (and a!16
                     (not (<= V2 0.0))
                     (not (= Z1 5.0))
                     (= W2 4448.0)
                     (= V2 C3)
                     (= A2 Z1)
                     (= M4 X2))))
      (a!25 (and a!24
                 (not (= P1 0.0))
                 (not (= H2 0.0))
                 (= M2 V2)
                 (= W2 4368.0)
                 (= A2 Z1)
                 (= M4 X2)
                 (= (+ K (* (- 1.0) J)) 1.0))))
(let ((a!28 (or (and a!17 (= E D) (= G1 F1) (= S R) (= K J))
                (and a!19 (= E D) (= A2 Z1) (= G1 F1) (= S R) (= K J) (= M4 X2))
                (and a!21 (= E D) (= A2 Z1) (= G1 F1) (= S R) (= K J) (= M4 X2))
                a!25
                (and a!26
                     (not (<= V2 0.0))
                     (= E D)
                     (= W2 4512.0)
                     (= V2 G3)
                     (= A2 Z1)
                     (= G1 F1)
                     (= S R)
                     (= K J)
                     (= M4 X2))
                (and a!27
                     (not (<= V2 0.0))
                     (= E D)
                     (not (= X 0.0))
                     (not (= P2 0.0))
                     (= W2 4528.0)
                     (= V2 J3)
                     (= A2 Z1)
                     (= G1 F1)
                     (= S R)
                     (= K J)
                     (= M4 X2)))))
(let ((a!30 (and (or (and a!28 (= M L))
                     (and a!29
                          (= E D)
                          (= R1 W2)
                          (= M2 V2)
                          (= A2 Z1)
                          (= G1 F1)
                          (= S R)
                          (= K J)
                          (= M4 X2)))
                 (= W2 R2)
                 (= S1 R1)
                 (= C B))))
(let ((a!35 (or a!30
                (and (or a!32 a!33 a!34)
                     (= E D)
                     (= A2 Z1)
                     (= G1 F1)
                     (= S R)
                     (= M L)
                     (= K J)
                     (= M4 X2)))))
(let ((a!36 (or (and a!35 (= D2 0.0) (= F2 0.0) (= X2 0.0) (= L2 V2))
                (and a!35
                     (not (<= L2 0.0))
                     (= D2 0.0)
                     (not (= F2 0.0))
                     (= X2 0.0)
                     (= L2 S2)))))
(let ((a!37 (or (and a!36 (= H1 0.0) (= U1 T1) (= W1 R2))
                (and a!35 (= U1 T1) (not (= D2 0.0)) (= L2 V2) (= W1 R2))
                (and a!36 (not (= H1 0.0)) (= U1 T1) (= W1 R2) (= N R2))
                (and a!36 (not (= H1 0.0)) (= W1 T1) (= T1 R2) (not (= N R2)))
                (and a!35
                     (= U1 T1)
                     (= D2 0.0)
                     (not (= X2 0.0))
                     (= L2 V2)
                     (= W1 R2)))))
  (or (and (not S4) O4 (not N4) P4 (not Q4) (not R4))
      (and S4
           (not O4)
           (not N4)
           (not P4)
           (not Q4)
           (not R4)
           a!1
           (= E D)
           (= O N)
           (= U1 T1)
           (= K2 J2)
           (= M2 L2))
      (and S4
           (not O4)
           (not N4)
           (not P4)
           (not Q4)
           R4
           a!37
           (= K2 J2)
           (= Q2 P2)
           (= O2 N2)
           (= I2 H2)
           (= G2 F2)
           (= E2 D2)
           (= C2 B2)
           (= Y1 X1)
           (= Q1 P1)
           (= O1 N1)
           (= M1 L1)
           (= K1 J1)
           (= I1 H1)
           (= E1 D1)
           (= C1 B1)
           (= A1 Z)
           (= Y X)
           (= W V)
           (= U T)
           (= P Q)
           (= I H)
           (= G F)
           (= A 0.0))
      (and (not S4)
           O4
           (not N4)
           (not P4)
           Q4
           (not R4)
           (= E D)
           (= O N)
           (= U1 T1)
           (= K2 J2)
           (= M2 L2)
           (= Q2 P2)
           (= O2 N2)
           (= I2 H2)
           (= G2 F2)
           (= E2 D2)
           (= C2 B2)
           (= A2 Z1)
           (= Y1 X1)
           (= W1 V1)
           (= S1 R1)
           (= Q1 P1)
           (= O1 N1)
           (= M1 L1)
           (= K1 J1)
           (= I1 H1)
           (= G1 F1)
           (= E1 D1)
           (= C1 B1)
           (= A1 Z)
           (= Y X)
           (= W V)
           (= U T)
           (= S R)
           (= P Q)
           (= M L)
           (= K J)
           (= I H)
           (= G F)
           (= C B)
           (= A M4))
      (and (not S4)
           (not O4)
           N4
           (not P4)
           (not Q4)
           R4
           a!16
           (= E D)
           (= U1 T1)
           (= Z1 5.0)
           (= K2 J2)
           (= Q2 P2)
           (= O2 N2)
           (= L2 K3)
           (= I2 H2)
           (= G2 F2)
           (= E2 D2)
           (= C2 B2)
           (= A2 Z1)
           (= Y1 X1)
           (= W1 V1)
           (= S1 R1)
           (= Q1 P1)
           (= O1 N1)
           (= M1 L1)
           (= K1 J1)
           (= I1 H1)
           (= G1 F1)
           (= E1 D1)
           (= C1 B1)
           (= A1 Z)
           (= Y X)
           (= W V)
           (= U T)
           (= S R)
           (= P Q)
           (= M L)
           (= K J)
           (= I H)
           (= G F)
           (= C B)
           (= A M4))))))))))))
      )
      (state S4
       N4
       O4
       D
       N
       T1
       J2
       L2
       W1
       A2
       C
       A
       G
       I
       K
       M
       P
       S
       U
       W
       Y
       A1
       C1
       E1
       G1
       I1
       K1
       M1
       O1
       Q1
       S1
       Y1
       C2
       E2
       G2
       I2
       O2
       Q2)
    )
  )
)
(assert
  (forall ( (A Real) (B Real) (C Real) (D Real) (E Real) (F Real) (G Real) (H Real) (I Real) (J Real) (K Real) (L Real) (M Real) (N Real) (O Real) (P Real) (Q Real) (R Real) (S Real) (T Real) (U Real) (V Real) (W Real) (X Real) (Y Real) (Z Real) (A1 Real) (B1 Real) (C1 Real) (D1 Real) (E1 Real) (F1 Real) (G1 Real) (H1 Real) (I1 Real) (J1 Bool) (K1 Bool) (L1 Bool) ) 
    (=>
      (and
        (state L1
       K1
       J1
       B
       G
       W
       E1
       F1
       X
       Z
       A
       I1
       C
       D
       E
       F
       H
       I
       J
       K
       L
       M
       N
       O
       P
       Q
       R
       S
       T
       U
       V
       Y
       A1
       B1
       C1
       D1
       G1
       H1)
        (and (= J1 true) (not L1) (not K1))
      )
      false
    )
  )
)

(check-sat)
(exit)
